Version identifier: 22.1.0.0 | 2022-03-09 | 1a383f8ce
CPXPARAM_Threads                                 1
CPXPARAM_MIP_Strategy_VariableSelect             3
CPXPARAM_TimeLimit                               599.99996686400004
1 of 1 MIP starts provided solutions.
MIP start 'm1' defined initial solution with objective 153.0000.
Tried aggregator 1 time.
MIP Presolve eliminated 18 rows and 648 columns.
MIP Presolve modified 5 coefficients.
Reduced MIP has 1722 rows, 1944 columns, and 23564 nonzeros.
Reduced MIP has 1944 binaries, 0 generals, 0 SOSs, and 0 indicators.
Presolve time = 0.02 sec. (14.07 ticks)
Probing time = 0.00 sec. (2.64 ticks)
Tried aggregator 1 time.
Detecting symmetries...
Reduced MIP has 1722 rows, 1944 columns, and 23564 nonzeros.
Reduced MIP has 1944 binaries, 0 generals, 0 SOSs, and 0 indicators.
Presolve time = 0.02 sec. (13.77 ticks)
Probing time = 0.00 sec. (2.64 ticks)
Clique table members: 1069.
MIP emphasis: balance optimality and feasibility.
MIP search method: dynamic search.
Parallel mode: none, using 1 thread.
Root relaxation solution time = 0.04 sec. (30.49 ticks)

        Nodes                                         Cuts/
   Node  Left     Objective  IInf  Best Integer    Best Bound    ItCnt     Gap

*     0+    0                          153.0000     1944.0000              --- 
      0     0      216.0000     8      153.0000      216.0000      819   41.18%
*     0+    0                          216.0000      216.0000             0.00%
      0     0        cutoff            216.0000      216.0000      819    0.00%
Elapsed time = 0.11 sec. (97.59 ticks, tree = 0.01 MB, solutions = 2)

Root node processing (before b&c):
  Real time             =    0.11 sec. (97.70 ticks)
Sequential b&c:
  Real time             =    0.00 sec. (0.00 ticks)
                          ------------
Total (root+branch&cut) =    0.11 sec. (97.70 ticks)
Primal:	216
Dual:	216
Status:	Optimal
Time:	0.12
Sequence:
	0
	11
	4
	5
	0
	1
	9
	2
	11
	4
	0
	4
	4
	9
	11
	9
	9
	9
	5
	9
	9
	11
	9
	4
	0
	4
	5
	0
	3
	4
	5
	9
	4
	4
	11
	4
	5
	0
	5
	4
	11
	9
	1
	0
	5
	9
	11
	9
	9
	9
	9
	9
	9
	9
	11
	9
	1
	0
	9
	9
	3
	9
	9
	4
	0
	1
	4
	4
	11
	4
	0
	4
	9
	4
	11
	9
	0
	1
	9
	0
	9
	11
	4
	4
	9
	4
	4
	11
	9
	4
	4
	9
	9
	9
	9
	9
	2
	9
	9
	9
	9
	9
	0
	1
	4
	4
	3
	4
	9
	9
	0
	4
	3
	4
	5
	0
	9
	5
	0
	1
	4
	3
	4
	4
	2
	4
	4
	3
	4
	4
	0
	4
	9
	4
	3
	0
	4
	5
	0
	5
	9
	5
	0
	1
	4
	9
	11
	9
	0
	5
	4
	0
	4
	4
	0
	3
	4
	5
	0
	5
	9
	0
	3
	4
	9
	0
	9
	5
	9
	0
	11
	9
	0
	4
	1
	0
	4
	5
	0
	4
	3
	9
	5
	4
	1
	0
	3
	9
	0
	4
	6
	0
	3
	9
	1
	4
	1
	4
	2
	3
	4
	5
	0
	6
	4
	0
	1
	4
	4
	11
	4
	9
	0
	4
	9
	11
